c File: instances/36_0.75_2.col
c
c Description: Random graph of size 36 vertices and P(0.7500000000000001) of edges between any two vertices.
p col 36 630
e 1 2
e 1 3
e 1 4
e 1 5
e 1 6
e 1 7
e 1 8
e 1 9
e 1 10
e 1 11
e 1 13
e 1 14
e 1 15
e 1 17
e 1 22
e 1 23
e 1 25
e 1 26
e 1 28
e 1 29
e 1 30
e 1 31
e 1 32
e 1 33
e 1 34
e 1 35
e 1 36
e 2 6
e 2 7
e 2 8
e 2 9
e 2 10
e 2 11
e 2 12
e 2 13
e 2 15
e 2 16
e 2 18
e 2 19
e 2 20
e 2 22
e 2 24
e 2 25
e 2 27
e 2 28
e 2 30
e 2 31
e 2 33
e 2 34
e 2 35
e 2 36
e 3 4
e 3 5
e 3 6
e 3 7
e 3 8
e 3 9
e 3 12
e 3 13
e 3 14
e 3 15
e 3 16
e 3 17
e 3 19
e 3 21
e 3 23
e 3 24
e 3 25
e 3 26
e 3 27
e 3 29
e 3 31
e 3 34
e 3 35
e 3 36
e 4 5
e 4 6
e 4 7
e 4 8
e 4 9
e 4 10
e 4 11
e 4 12
e 4 13
e 4 14
e 4 15
e 4 17
e 4 19
e 4 20
e 4 21
e 4 22
e 4 23
e 4 24
e 4 25
e 4 26
e 4 28
e 4 30
e 4 31
e 4 32
e 4 33
e 4 34
e 4 35
e 4 36
e 5 7
e 5 8
e 5 9
e 5 12
e 5 14
e 5 16
e 5 17
e 5 18
e 5 19
e 5 20
e 5 21
e 5 22
e 5 24
e 5 25
e 5 27
e 5 30
e 5 31
e 5 32
e 5 33
e 5 34
e 5 35
e 5 36
e 6 7
e 6 8
e 6 9
e 6 10
e 6 11
e 6 13
e 6 14
e 6 16
e 6 17
e 6 18
e 6 19
e 6 20
e 6 21
e 6 26
e 6 27
e 6 28
e 6 29
e 6 30
e 6 32
e 6 33
e 6 34
e 6 35
e 6 36
e 7 8
e 7 9
e 7 10
e 7 11
e 7 13
e 7 14
e 7 15
e 7 17
e 7 18
e 7 19
e 7 21
e 7 22
e 7 23
e 7 25
e 7 26
e 7 27
e 7 30
e 7 32
e 7 33
e 7 36
e 8 9
e 8 10
e 8 11
e 8 12
e 8 13
e 8 15
e 8 17
e 8 19
e 8 20
e 8 21
e 8 22
e 8 23
e 8 25
e 8 26
e 8 27
e 8 28
e 8 29
e 8 30
e 8 31
e 8 33
e 8 35
e 9 10
e 9 12
e 9 13
e 9 14
e 9 15
e 9 16
e 9 18
e 9 20
e 9 22
e 9 24
e 9 26
e 9 28
e 9 30
e 9 31
e 9 32
e 9 34
e 9 36
e 10 11
e 10 12
e 10 13
e 10 14
e 10 15
e 10 17
e 10 18
e 10 19
e 10 20
e 10 22
e 10 25
e 10 26
e 10 27
e 10 29
e 10 30
e 10 31
e 10 32
e 10 33
e 10 34
e 10 36
e 11 12
e 11 14
e 11 16
e 11 17
e 11 18
e 11 20
e 11 23
e 11 24
e 11 26
e 11 28
e 11 29
e 11 31
e 11 32
e 11 33
e 11 34
e 11 36
e 12 13
e 12 17
e 12 18
e 12 20
e 12 22
e 12 23
e 12 24
e 12 25
e 12 26
e 12 28
e 12 29
e 12 30
e 12 31
e 12 32
e 12 33
e 12 34
e 12 35
e 12 36
e 13 14
e 13 15
e 13 16
e 13 19
e 13 20
e 13 22
e 13 23
e 13 25
e 13 26
e 13 28
e 13 29
e 13 30
e 13 34
e 13 35
e 13 36
e 14 17
e 14 18
e 14 20
e 14 21
e 14 22
e 14 23
e 14 24
e 14 26
e 14 27
e 14 28
e 14 29
e 14 31
e 14 32
e 14 33
e 14 34
e 14 35
e 15 16
e 15 17
e 15 18
e 15 19
e 15 20
e 15 21
e 15 24
e 15 27
e 15 28
e 15 29
e 15 31
e 15 33
e 15 34
e 15 35
e 15 36
e 16 17
e 16 18
e 16 19
e 16 21
e 16 22
e 16 23
e 16 24
e 16 25
e 16 27
e 16 28
e 16 29
e 16 30
e 16 31
e 16 32
e 16 33
e 16 34
e 16 35
e 16 36
e 17 18
e 17 19
e 17 21
e 17 22
e 17 23
e 17 26
e 17 29
e 17 30
e 17 31
e 17 32
e 17 33
e 17 35
e 17 36
e 18 20
e 18 22
e 18 23
e 18 24
e 18 25
e 18 26
e 18 27
e 18 28
e 18 29
e 18 30
e 18 31
e 18 33
e 18 34
e 18 35
e 18 36
e 19 20
e 19 22
e 19 23
e 19 24
e 19 27
e 19 28
e 19 29
e 19 30
e 19 31
e 19 33
e 19 34
e 19 36
e 20 21
e 20 22
e 20 23
e 20 25
e 20 27
e 20 29
e 20 30
e 20 31
e 20 32
e 20 33
e 20 34
e 21 22
e 21 23
e 21 27
e 21 28
e 21 30
e 21 32
e 21 33
e 21 34
e 21 36
e 22 23
e 22 24
e 22 25
e 22 26
e 22 27
e 22 28
e 22 30
e 22 31
e 22 32
e 22 33
e 22 34
e 22 35
e 23 25
e 23 26
e 23 27
e 23 28
e 23 30
e 23 31
e 23 32
e 23 33
e 23 34
e 23 36
e 24 25
e 24 31
e 24 35
e 25 26
e 25 29
e 25 31
e 25 32
e 25 36
e 26 31
e 26 33
e 26 34
e 26 35
e 26 36
e 27 28
e 27 29
e 27 30
e 27 32
e 27 33
e 27 36
e 28 29
e 28 30
e 28 32
e 28 34
e 28 35
e 29 30
e 29 31
e 29 32
e 29 33
e 29 34
e 29 36
e 30 31
e 30 32
e 30 33
e 30 34
e 31 33
e 31 34
e 32 33
e 32 34
e 32 35
e 32 36
e 33 34
e 33 35
e 33 36
e 34 35
e 34 36
e 35 36